interdiction/MCDM/NO_CORR/GEN_FROM_60/20_ITEMS_1000_GEN/K5020W14.KNP.mps
NAME          BLANK   
ROWS
 N  OBJROW
 L  R0000000
COLUMNS
    C0000000  OBJROW     -412.         R0000000  929.        
    C0000001  OBJROW     -669.         R0000000  73.         
    C0000002  OBJROW     -260.         R0000000  481.        
    C0000003  OBJROW     -531.         R0000000  147.        
    C0000004  OBJROW     -491.         R0000000  9.          
    C0000005  OBJROW     -987.         R0000000  336.        
    C0000006  OBJROW     -780.         R0000000  408.        
    C0000007  OBJROW     -154.         R0000000  496.        
    C0000008  OBJROW     -505.         R0000000  316.        
    C0000009  OBJROW     -575.         R0000000  770.        
    C0000010  OBJROW     -331.         R0000000  944.        
    C0000011  OBJROW     -712.         R0000000  565.        
    C0000012  OBJROW     -315.         R0000000  14.         
    C0000013  OBJROW     -308.         R0000000  651.        
    C0000014  OBJROW     -179.         R0000000  360.        
    C0000015  OBJROW     -734.         R0000000  909.        
    C0000016  OBJROW     -448.         R0000000  382.        
    C0000017  OBJROW     -480.         R0000000  324.        
    C0000018  OBJROW     -856.         R0000000  506.        
    C0000019  OBJROW     -523.         R0000000  264.        
RHS
    RHS       R0000000  14110.      
BOUNDS
 BV BOUND     C0000000  1.          
 BV BOUND     C0000001  1.          
 BV BOUND     C0000002  1.          
 BV BOUND     C0000003  1.          
 BV BOUND     C0000004  1.          
 BV BOUND     C0000005  1.          
 BV BOUND     C0000006  1.          
 BV BOUND     C0000007  1.          
 BV BOUND     C0000008  1.          
 BV BOUND     C0000009  1.          
 BV BOUND     C0000010  1.          
 BV BOUND     C0000011  1.          
 BV BOUND     C0000012  1.          
 BV BOUND     C0000013  1.          
 BV BOUND     C0000014  1.          
 BV BOUND     C0000015  1.          
 BV BOUND     C0000016  1.          
 BV BOUND     C0000017  1.          
 BV BOUND     C0000018  1.          
 BV BOUND     C0000019  1.          
ENDATA
