data/MCDM/NO_CORR/GEN_FROM_60/20_ITEMS_1000_GEN/K5020W14.KNP.txt
N 20
M 21
LC 20
LC 21
LC 22
LC 23
LC 24
LC 25
LC 26
LC 27
LC 28
LC 29
LC 30
LC 31
LC 32
LC 33
LC 34
LC 35
LC 36
LC 37
LC 38
LC 39
LR 1
LR 2
LR 3
LR 4
LR 5
LR 6
LR 7
LR 8
LR 9
LR 10
LR 11
LR 12
LR 13
LR 14
LR 15
LR 16
LR 17
LR 18
LR 19
LR 20
LR 21
LO -412
LO -669
LO -260
LO -531
LO -491
LO -987
LO -780
LO -154
LO -505
LO -575
LO -331
LO -712
LO -315
LO -308
LO -179
LO -734
LO -448
LO -480
LO -856
LO -523
OS 1
IC 232
IC 854
IC 765
IC 320
IC 962
IC 618
IC 659
IC 972
IC 635
IC 387
IC 118
IC 302
IC 645
IC 50
IC 276
IC 843
IC 441
IC 218
IC 212
IC 39
IB 4774
